120
150
93
50
21
79
43
78
46
26
33
50
60
66
67
100
50
28
30
28
75
48
30
25
95
40
26
45
39
22
57
78
72
69
79
51
25
24
50
30
89
30
96
79
37
34
66
89
30
45
51
54
50
100
23
55
27
45
55
60
35
72
28
50
60
90
50
49
51
23
98
29
73
40
37
48
89
32
79
39
39
42
77
73
44
67
39
46
49
26
29
50
100
82
61
77
77
89
75
84
33
33
50
100
51
98
78
86
32
32
51
99
100
100
55
95
95
61
89
90
93
100
